Optimize a model with 2 rows, 3 columns and 5 nonzeros
Found heuristic solution: objective 2
Presolve removed 2 rows and 3 columns
Presolve time: 0.00s

Explored 0 nodes (0 simplex iterations) in 0.00 seconds
Thread count was 1 (of 4 available processors)

Optimal solution found (tolerance 1.00e-04)
Best objective 3.000000000000e+00, best bound 3.000000000000e+00, gap 0.0%
Optimize a model with 6 rows, 9 columns and 18 nonzeros
Found heuristic solution: objective 5
Presolve time: 0.00s
Presolved: 6 rows, 9 columns, 18 nonzeros
Variable types: 0 continuous, 9 integer (9 binary)

Root relaxation: cutoff, 2 iterations, 0.00 seconds

    Nodes    |    Current Node    |     Objective Bounds      |     Work
 Expl Unexpl |  Obj  Depth IntInf | Incumbent    BestBd   Gap | It/Node Time

     0     0     cutoff    0         5.00000    5.99999  20.0%     -    0s

Explored 0 nodes (2 simplex iterations) in 0.00 seconds
Thread count was 4 (of 4 available processors)

Optimal solution found (tolerance 1.00e-04)
Best objective 5.000000000000e+00, best bound 5.000000000000e+00, gap 0.0%
Optimize a model with 20 rows, 100 columns and 200 nonzeros
Found heuristic solution: objective 57
Presolve time: 0.00s
Presolved: 20 rows, 100 columns, 200 nonzeros
Variable types: 0 continuous, 100 integer (100 binary)

Root relaxation: objective 7.400000e+01, 20 iterations, 0.00 seconds

    Nodes    |    Current Node    |     Objective Bounds      |     Work
 Expl Unexpl |  Obj  Depth IntInf | Incumbent    BestBd   Gap | It/Node Time

*    0     0               0      74.0000000   74.00000  0.00%     -    0s

Explored 0 nodes (20 simplex iterations) in 0.00 seconds
Thread count was 4 (of 4 available processors)

Optimal solution found (tolerance 1.00e-04)
Best objective 7.400000000000e+01, best bound 7.400000000000e+01, gap 0.0%
Optimize a model with 60 rows, 900 columns and 1800 nonzeros
Found heuristic solution: objective 430
Presolve time: 0.01s
Presolved: 60 rows, 900 columns, 1800 nonzeros
Variable types: 0 continuous, 900 integer (900 binary)

Root relaxation: objective 7.880000e+02, 69 iterations, 0.00 seconds

    Nodes    |    Current Node    |     Objective Bounds      |     Work
 Expl Unexpl |  Obj  Depth IntInf | Incumbent    BestBd   Gap | It/Node Time

*    0     0               0     788.0000000  788.00000  0.00%     -    0s

Explored 0 nodes (69 simplex iterations) in 0.01 seconds
Thread count was 4 (of 4 available processors)

Optimal solution found (tolerance 1.00e-04)
Best objective 7.880000000000e+02, best bound 7.880000000000e+02, gap 0.0%
Optimize a model with 60 rows, 900 columns and 1800 nonzeros
Found heuristic solution: objective 392
Presolve time: 0.01s
Presolved: 60 rows, 900 columns, 1800 nonzeros
Variable types: 0 continuous, 900 integer (900 binary)

Root relaxation: objective 7.710000e+02, 71 iterations, 0.00 seconds

    Nodes    |    Current Node    |     Objective Bounds      |     Work
 Expl Unexpl |  Obj  Depth IntInf | Incumbent    BestBd   Gap | It/Node Time

*    0     0               0     771.0000000  771.00000  0.00%     -    0s

Explored 0 nodes (71 simplex iterations) in 0.01 seconds
Thread count was 4 (of 4 available processors)

Optimal solution found (tolerance 1.00e-04)
Best objective 7.710000000000e+02, best bound 7.710000000000e+02, gap 0.0%
Optimize a model with 60 rows, 900 columns and 1800 nonzeros
Found heuristic solution: objective 465
Presolve time: 0.01s
Presolved: 60 rows, 900 columns, 1800 nonzeros
Variable types: 0 continuous, 900 integer (900 binary)

Root relaxation: objective 7.820000e+02, 84 iterations, 0.00 seconds

    Nodes    |    Current Node    |     Objective Bounds      |     Work
 Expl Unexpl |  Obj  Depth IntInf | Incumbent    BestBd   Gap | It/Node Time

*    0     0               0     782.0000000  782.00000  0.00%     -    0s

Explored 0 nodes (84 simplex iterations) in 0.01 seconds
Thread count was 4 (of 4 available processors)

Optimal solution found (tolerance 1.00e-04)
Best objective 7.820000000000e+02, best bound 7.820000000000e+02, gap 0.0%
Optimize a model with 60 rows, 900 columns and 1800 nonzeros
Found heuristic solution: objective 473
Presolve time: 0.01s
Presolved: 60 rows, 900 columns, 1800 nonzeros
Variable types: 0 continuous, 900 integer (900 binary)

Root relaxation: objective 7.830000e+02, 60 iterations, 0.00 seconds

    Nodes    |    Current Node    |     Objective Bounds      |     Work
 Expl Unexpl |  Obj  Depth IntInf | Incumbent    BestBd   Gap | It/Node Time

*    0     0               0     783.0000000  783.00000  0.00%     -    0s

Explored 0 nodes (60 simplex iterations) in 0.03 seconds
Thread count was 4 (of 4 available processors)

Optimal solution found (tolerance 1.00e-04)
Best objective 7.830000000000e+02, best bound 7.830000000000e+02, gap 0.0%
Optimize a model with 6 rows, 9 columns and 18 nonzeros
Found heuristic solution: objective 6
Presolve time: 0.00s
Presolved: 6 rows, 9 columns, 18 nonzeros
Variable types: 0 continuous, 9 integer (9 binary)

Root relaxation: cutoff, 2 iterations, 0.00 seconds

    Nodes    |    Current Node    |     Objective Bounds      |     Work
 Expl Unexpl |  Obj  Depth IntInf | Incumbent    BestBd   Gap | It/Node Time

     0     0     cutoff    0         6.00000    6.99999  16.7%     -    0s

Explored 0 nodes (2 simplex iterations) in 0.00 seconds
Thread count was 4 (of 4 available processors)

Optimal solution found (tolerance 1.00e-04)
Best objective 6.000000000000e+00, best bound 6.000000000000e+00, gap 0.0%
Optimize a model with 6 rows, 9 columns and 18 nonzeros
Found heuristic solution: objective 2
Presolve time: 0.00s
Presolved: 6 rows, 9 columns, 18 nonzeros
Variable types: 0 continuous, 9 integer (9 binary)

Root relaxation: objective 4.000000e+00, 2 iterations, 0.00 seconds

    Nodes    |    Current Node    |     Objective Bounds      |     Work
 Expl Unexpl |  Obj  Depth IntInf | Incumbent    BestBd   Gap | It/Node Time

*    0     0               0       4.0000000    4.00000  0.00%     -    0s

Explored 0 nodes (2 simplex iterations) in 0.00 seconds
Thread count was 4 (of 4 available processors)

Optimal solution found (tolerance 1.00e-04)
Best objective 4.000000000000e+00, best bound 4.000000000000e+00, gap 0.0%
Optimize a model with 6 rows, 9 columns and 18 nonzeros
Found heuristic solution: objective 2
Presolve time: 0.00s
Presolved: 6 rows, 9 columns, 18 nonzeros
Variable types: 0 continuous, 9 integer (9 binary)

Root relaxation: objective 4.000000e+00, 2 iterations, 0.00 seconds

    Nodes    |    Current Node    |     Objective Bounds      |     Work
 Expl Unexpl |  Obj  Depth IntInf | Incumbent    BestBd   Gap | It/Node Time

*    0     0               0       4.0000000    4.00000  0.00%     -    0s

Explored 0 nodes (2 simplex iterations) in 0.00 seconds
Thread count was 4 (of 4 available processors)

Optimal solution found (tolerance 1.00e-04)
Best objective 4.000000000000e+00, best bound 4.000000000000e+00, gap 0.0%
Optimize a model with 6 rows, 9 columns and 18 nonzeros
Found heuristic solution: objective 3
Presolve time: 0.00s
Presolved: 6 rows, 9 columns, 18 nonzeros
Variable types: 0 continuous, 9 integer (9 binary)

Root relaxation: objective 5.000000e+00, 3 iterations, 0.00 seconds

    Nodes    |    Current Node    |     Objective Bounds      |     Work
 Expl Unexpl |  Obj  Depth IntInf | Incumbent    BestBd   Gap | It/Node Time

*    0     0               0       5.0000000    5.00000  0.00%     -    0s

Explored 0 nodes (3 simplex iterations) in 0.00 seconds
Thread count was 4 (of 4 available processors)

Optimal solution found (tolerance 1.00e-04)
Best objective 5.000000000000e+00, best bound 5.000000000000e+00, gap 0.0%
Optimize a model with 6 rows, 9 columns and 18 nonzeros
Found heuristic solution: objective 3
Presolve time: 0.01s
Presolved: 6 rows, 9 columns, 18 nonzeros
Variable types: 0 continuous, 9 integer (9 binary)

Root relaxation: objective 5.000000e+00, 3 iterations, 0.00 seconds

    Nodes    |    Current Node    |     Objective Bounds      |     Work
 Expl Unexpl |  Obj  Depth IntInf | Incumbent    BestBd   Gap | It/Node Time

*    0     0               0       5.0000000    5.00000  0.00%     -    0s

Explored 0 nodes (3 simplex iterations) in 0.06 seconds
Thread count was 4 (of 4 available processors)

Optimal solution found (tolerance 1.00e-04)
Best objective 5.000000000000e+00, best bound 5.000000000000e+00, gap 0.0%
Optimize a model with 6 rows, 9 columns and 18 nonzeros
Found heuristic solution: objective 3
Presolve time: 0.00s
Presolved: 6 rows, 9 columns, 18 nonzeros
Variable types: 0 continuous, 9 integer (9 binary)

Root relaxation: objective 5.000000e+00, 3 iterations, 0.00 seconds

    Nodes    |    Current Node    |     Objective Bounds      |     Work
 Expl Unexpl |  Obj  Depth IntInf | Incumbent    BestBd   Gap | It/Node Time

*    0     0               0       5.0000000    5.00000  0.00%     -    0s

Explored 0 nodes (3 simplex iterations) in 0.00 seconds
Thread count was 4 (of 4 available processors)

Optimal solution found (tolerance 1.00e-04)
Best objective 5.000000000000e+00, best bound 5.000000000000e+00, gap 0.0%
Optimize a model with 6 rows, 9 columns and 18 nonzeros
Found heuristic solution: objective 3
Presolve time: 0.00s
Presolved: 6 rows, 9 columns, 18 nonzeros
Variable types: 0 continuous, 9 integer (9 binary)

Root relaxation: objective 5.000000e+00, 3 iterations, 0.00 seconds

    Nodes    |    Current Node    |     Objective Bounds      |     Work
 Expl Unexpl |  Obj  Depth IntInf | Incumbent    BestBd   Gap | It/Node Time

*    0     0               0       5.0000000    5.00000  0.00%     -    0s

Explored 0 nodes (3 simplex iterations) in 0.00 seconds
Thread count was 4 (of 4 available processors)

Optimal solution found (tolerance 1.00e-04)
Best objective 5.000000000000e+00, best bound 5.000000000000e+00, gap 0.0%
Optimize a model with 6 rows, 9 columns and 18 nonzeros
Found heuristic solution: objective 3
Presolve time: 0.00s
Presolved: 6 rows, 9 columns, 18 nonzeros
Variable types: 0 continuous, 9 integer (9 binary)

Root relaxation: objective 5.000000e+00, 3 iterations, 0.00 seconds

    Nodes    |    Current Node    |     Objective Bounds      |     Work
 Expl Unexpl |  Obj  Depth IntInf | Incumbent    BestBd   Gap | It/Node Time

*    0     0               0       5.0000000    5.00000  0.00%     -    0s

Explored 0 nodes (3 simplex iterations) in 0.00 seconds
Thread count was 4 (of 4 available processors)

Optimal solution found (tolerance 1.00e-04)
Best objective 5.000000000000e+00, best bound 5.000000000000e+00, gap 0.0%
